c Not satisfiable
p wcnf 42 138 1000
1000 -1     -7    0
1000 -1     -13   0
1000 -1     -19   0
1000 -1     -25   0
1000 -1     -31   0
1000 -1     -37   0
1000 -7     -13   0
1000 -7     -19   0
1000 -7     -25   0
1000 -7     -31   0
1000 -7     -37   0
1000 -13    -19   0
1000 -13    -25   0
1000 -13    -31   0
1000 -13    -37   0
1000 -19    -25   0
1000 -19    -31   0
1000 -19    -37   0
1000 -25    -31   0
1000 -25    -37   0
1000 -31    -37   0
1000 -2     -8    0
1000 -2     -14   0
1000 -2     -20   0
1000 -2     -26   0
1000 -2     -32   0
1000 -2     -38   0
1000 -8     -14   0
1000 -8     -20   0
1000 -8     -26   0
1000 -8     -32   0
1000 -8     -38   0
1000 -14    -20   0
1000 -14    -26   0
1000 -14    -32   0
1000 -14    -38   0
1000 -20    -26   0
1000 -20    -32   0
1000 -20    -38   0
1000 -26    -32   0
1000 -26    -38   0
1000 -32    -38   0
1000 -3     -9    0
1000 -3     -15   0
1000 -3     -21   0
1000 -3     -27   0
1000 -3     -33   0
1000 -3     -39   0
1000 -9     -15   0
1000 -9     -21   0
1000 -9     -27   0
1000 -9     -33   0
1000 -9     -39   0
1000 -15    -21   0
1000 -15    -27   0
1000 -15    -33   0
1000 -15    -39   0
1000 -21    -27   0
1000 -21    -33   0
1000 -21    -39   0
1000 -27    -33   0
1000 -27    -39   0
1000 -33    -39   0
1000 -4     -10   0
1000 -4     -16   0
1000 -4     -22   0
1000 -4     -28   0
1000 -4     -34   0
1000 -4     -40   0
1000 -10    -16   0
1000 -10    -22   0
1000 -10    -28   0
1000 -10    -34   0
1000 -10    -40   0
1000 -16    -22   0
1000 -16    -28   0
1000 -16    -34   0
1000 -16    -40   0
1000 -22    -28   0
1000 -22    -34   0
1000 -22    -40   0
1000 -28    -34   0
1000 -28    -40   0
1000 -34    -40   0
1000 -5     -11   0
1000 -5     -17   0
1000 -5     -23   0
1000 -5     -29   0
1000 -5     -35   0
1000 -5     -41   0
1000 -11    -17   0
1000 -11    -23   0
1000 -11    -29   0
1000 -11    -35   0
1000 -11    -41   0
1000 -17    -23   0
1000 -17    -29   0
1000 -17    -35   0
1000 -17    -41   0
1000 -23    -29   0
1000 -23    -35   0
1000 -23    -41   0
1000 -29    -35   0
1000 -29    -41   0
1000 -35    -41   0
1000 -6     -12   0
1000 -6     -18   0
1000 -6     -24   0
1000 -6     -30   0
1000 -6     -36   0
1000 -6     -42   0
1000 -12    -18   0
1000 -12    -24   0
1000 -12    -30   0
1000 -12    -36   0
1000 -12    -42   0
1000 -18    -24   0
1000 -18    -30   0
1000 -18    -36   0
1000 -18    -42   0
1000 -24    -30   0
1000 -24    -36   0
1000 -24    -42   0
1000 -30    -36   0
1000 -30    -42   0
1000 -36    -42   0
1000  6      5      4      3      2      1    0
1000  12     11     10     9      8      7    0
1000  18     17     16     15     14     13   0
1000  24     23     22     21     20     19   0
1000  30     29     28     27     26     25   0
1000  36     35     34     33     32     31   0
1000  42     41     40     39     38     37   0
16 1 -2 4 0
16 -1 -2 3 0
16 -2 -4 0
4 -3 2 0
3 1 3 0